(set-info :smt-lib-version 2.6)
(set-logic QF_NIA)
(set-info :source |
Generated by: Cristina Borralleras, Daniel Larraz, Albert Oliveras, Enric Rodriguez-Carbonell, Albert Rubio
Generated on: 2017-04-27
Generator: VeryMax
Application: Termination proving
Target solver: barcelogic
|)
(set-info :license "https://creativecommons.org/licenses/by/4.0/")
(set-info :category "industrial")
(set-info :status unsat)
(declare-fun Nl2main_x1 () Int)
(declare-fun Nl2main_x2 () Int)
(declare-fun Nl2main_x3 () Int)
(declare-fun lam0n0 () Int)
(declare-fun lam0n1 () Int)
(declare-fun lam0n2 () Int)
(declare-fun lam0n3 () Int)
(declare-fun lam0n4 () Int)
(declare-fun Nl2CT1 () Int)
(declare-fun Nl2CT2 () Int)
(declare-fun Nl2CT3 () Int)
(declare-fun lam1n0 () Int)
(declare-fun lam1n1 () Int)
(declare-fun lam1n2 () Int)
(declare-fun lam1n3 () Int)
(declare-fun lam1n4 () Int)
(declare-fun lam2n0 () Int)
(declare-fun lam2n1 () Int)
(declare-fun lam2n2 () Int)
(declare-fun lam2n3 () Int)
(declare-fun lam2n4 () Int)
(declare-fun lam3n0 () Int)
(declare-fun lam3n1 () Int)
(declare-fun lam3n2 () Int)
(declare-fun lam3n3 () Int)
(declare-fun lam3n4 () Int)
(declare-fun lam4n0 () Int)
(declare-fun lam4n1 () Int)
(declare-fun lam5n0 () Int)
(declare-fun lam5n1 () Int)
(declare-fun lam6n0 () Int)
(declare-fun lam6n1 () Int)
(declare-fun lam7n0 () Int)
(declare-fun lam7n1 () Int)
(declare-fun lam8n0 () Int)
(declare-fun lam8n1 () Int)
(declare-fun lam9n0 () Int)
(declare-fun lam9n1 () Int)
(declare-fun main_x () Int)
(declare-fun lam13n0 () Int)
(declare-fun lam13n1 () Int)
(declare-fun lam13n2 () Int)
(declare-fun lam13n3 () Int)
(declare-fun lam13n4 () Int)
(declare-fun RFN1_CT () Int)
(declare-fun RFN1_main_x () Int)
(declare-fun lam11n0 () Int)
(declare-fun lam11n1 () Int)
(declare-fun lam11n2 () Int)
(declare-fun lam11n3 () Int)
(declare-fun lam11n4 () Int)
(declare-fun lam12n0 () Int)
(declare-fun lam12n1 () Int)
(declare-fun lam12n2 () Int)
(declare-fun lam12n3 () Int)
(declare-fun lam12n4 () Int)
(declare-fun lam10n0 () Int)
(declare-fun lam10n1 () Int)
(declare-fun lam10n2 () Int)
(declare-fun lam10n3 () Int)
(declare-fun lam10n4 () Int)
(assert ( and ( <= ( - 5 ) Nl2main_x1 ) ( <= Nl2main_x1 5 ) ( <= ( - 5 ) Nl2main_x2 ) ( <= Nl2main_x2 5 ) ( <= ( - 5 ) Nl2main_x3 ) ( <= Nl2main_x3 5 ) ))
(assert ( or ( and ( >= lam0n0 0 ) ( >= lam0n1 0 ) ( >= lam0n2 0 ) ( >= lam0n3 0 ) ( >= lam0n4 0 ) ( > ( + ( * ( - 5 ) lam0n0 ) ( * 1 lam0n1 ) ( * Nl2CT1 lam0n2 ) ( * Nl2CT2 lam0n3 ) ( * Nl2CT3 lam0n4 ) ( - 1 ) ) 0 ) ( = ( + ( * ( - 1 ) lam0n0 ) ( * 1 lam0n1 ) ( * Nl2main_x1 lam0n2 ) ( * Nl2main_x2 lam0n3 ) ( * Nl2main_x3 lam0n4 ) ) 0 ) ) ( and ( >= lam1n0 0 ) ( >= lam1n1 0 ) ( >= lam1n2 0 ) ( >= lam1n3 0 ) ( >= lam1n4 0 ) ( > ( + ( * ( - 5 ) lam1n0 ) ( * 1 lam1n1 ) ( * Nl2CT1 lam1n2 ) ( * Nl2CT2 lam1n3 ) ( * Nl2CT3 lam1n4 ) ( - 1 ( + Nl2CT1 ( * Nl2main_x1 ( - 5 ) ) ) ) ) 0 ) ( = ( + ( * ( - 1 ) lam1n0 ) ( * 1 lam1n1 ) ( * Nl2main_x1 lam1n2 ) ( * Nl2main_x2 lam1n3 ) ( * Nl2main_x3 lam1n4 ) ) 0 ) ) ))
(assert ( or ( and ( >= lam0n0 0 ) ( >= lam0n1 0 ) ( >= lam0n2 0 ) ( >= lam0n3 0 ) ( >= lam0n4 0 ) ( > ( + ( * ( - 5 ) lam0n0 ) ( * 1 lam0n1 ) ( * Nl2CT1 lam0n2 ) ( * Nl2CT2 lam0n3 ) ( * Nl2CT3 lam0n4 ) ( - 1 ) ) 0 ) ( = ( + ( * ( - 1 ) lam0n0 ) ( * 1 lam0n1 ) ( * Nl2main_x1 lam0n2 ) ( * Nl2main_x2 lam0n3 ) ( * Nl2main_x3 lam0n4 ) ) 0 ) ) ( and ( >= lam2n0 0 ) ( >= lam2n1 0 ) ( >= lam2n2 0 ) ( >= lam2n3 0 ) ( >= lam2n4 0 ) ( > ( + ( * ( - 5 ) lam2n0 ) ( * 1 lam2n1 ) ( * Nl2CT1 lam2n2 ) ( * Nl2CT2 lam2n3 ) ( * Nl2CT3 lam2n4 ) ( - 1 ( + Nl2CT2 ( * Nl2main_x2 ( - 5 ) ) ) ) ) 0 ) ( = ( + ( * ( - 1 ) lam2n0 ) ( * 1 lam2n1 ) ( * Nl2main_x1 lam2n2 ) ( * Nl2main_x2 lam2n3 ) ( * Nl2main_x3 lam2n4 ) ) 0 ) ) ))
(assert ( or ( and ( >= lam0n0 0 ) ( >= lam0n1 0 ) ( >= lam0n2 0 ) ( >= lam0n3 0 ) ( >= lam0n4 0 ) ( > ( + ( * ( - 5 ) lam0n0 ) ( * 1 lam0n1 ) ( * Nl2CT1 lam0n2 ) ( * Nl2CT2 lam0n3 ) ( * Nl2CT3 lam0n4 ) ( - 1 ) ) 0 ) ( = ( + ( * ( - 1 ) lam0n0 ) ( * 1 lam0n1 ) ( * Nl2main_x1 lam0n2 ) ( * Nl2main_x2 lam0n3 ) ( * Nl2main_x3 lam0n4 ) ) 0 ) ) ( and ( >= lam3n0 0 ) ( >= lam3n1 0 ) ( >= lam3n2 0 ) ( >= lam3n3 0 ) ( >= lam3n4 0 ) ( > ( + ( * ( - 5 ) lam3n0 ) ( * 1 lam3n1 ) ( * Nl2CT1 lam3n2 ) ( * Nl2CT2 lam3n3 ) ( * Nl2CT3 lam3n4 ) ( - 1 ( + Nl2CT3 ( * Nl2main_x3 ( - 5 ) ) ) ) ) 0 ) ( = ( + ( * ( - 1 ) lam3n0 ) ( * 1 lam3n1 ) ( * Nl2main_x1 lam3n2 ) ( * Nl2main_x2 lam3n3 ) ( * Nl2main_x3 lam3n4 ) ) 0 ) ) ))
(assert ( or ( and ( not ( <= ( + 36 ( * ( - 1 ) main_x ) ) 0 ) ) ( not ( <= ( + ( - 30 ) main_x ) 0 ) ) ( <= ( + Nl2CT1 ( * ( + 0 Nl2main_x1 ) main_x ) ) 0 ) ( <= ( + Nl2CT2 ( * ( + 0 Nl2main_x2 ) main_x ) ) 0 ) ( <= ( + Nl2CT3 ( * ( + 0 Nl2main_x3 ) main_x ) ) 0 ) ( <= ( + ( - 7 ) main_x ) 0 ) ) ( and ( not ( <= ( + 6 main_x ) 0 ) ) ( not ( <= ( * ( - 1 ) main_x ) 0 ) ) ( <= ( + Nl2CT1 ( * ( + 0 Nl2main_x1 ) main_x ) ) 0 ) ( <= ( + Nl2CT2 ( * ( + 0 Nl2main_x2 ) main_x ) ) 0 ) ( <= ( + Nl2CT3 ( * ( + 0 Nl2main_x3 ) main_x ) ) 0 ) ( <= ( + ( - 7 ) main_x ) 0 ) ) ))
(assert ( or ( and ( and ( >= lam13n0 0 ) ( >= lam13n1 0 ) ( >= lam13n2 0 ) ( >= lam13n3 0 ) ( >= lam13n4 0 ) ( > ( + ( * ( - 5 ) lam13n0 ) ( * 1 lam13n1 ) ( * Nl2CT1 lam13n2 ) ( * Nl2CT2 lam13n3 ) ( * Nl2CT3 lam13n4 ) ( - 1 ( - ( + RFN1_CT ( * RFN1_main_x ( - 5 ) ) ) RFN1_CT ) ) ) 0 ) ( = ( + ( * ( - 1 ) lam13n0 ) ( * 1 lam13n1 ) ( * Nl2main_x1 lam13n2 ) ( * Nl2main_x2 lam13n3 ) ( * Nl2main_x3 lam13n4 ) ( - ( - RFN1_main_x ) ) ) 0 ) ) ( and ( and ( >= lam11n0 0 ) ( >= lam11n1 0 ) ( >= lam11n2 0 ) ( >= lam11n3 0 ) ( >= lam11n4 0 ) ( > ( + ( * ( - 5 ) lam11n0 ) ( * 1 lam11n1 ) ( * Nl2CT1 lam11n2 ) ( * Nl2CT2 lam11n3 ) ( * Nl2CT3 lam11n4 ) ( - 1 ( - RFN1_CT ) ) ) 0 ) ( = ( + ( * ( - 1 ) lam11n0 ) ( * 1 lam11n1 ) ( * Nl2main_x1 lam11n2 ) ( * Nl2main_x2 lam11n3 ) ( * Nl2main_x3 lam11n4 ) ( - ( - RFN1_main_x ) ) ) 0 ) ) ( and ( >= lam12n0 0 ) ( >= lam12n1 0 ) ( >= lam12n2 0 ) ( >= lam12n3 0 ) ( >= lam12n4 0 ) ( > ( + ( * ( - 5 ) lam12n0 ) ( * 1 lam12n1 ) ( * Nl2CT1 lam12n2 ) ( * Nl2CT2 lam12n3 ) ( * Nl2CT3 lam12n4 ) ( - 1 ( + ( - ( + RFN1_CT ( * RFN1_main_x ( - 5 ) ) ) RFN1_CT ) 1 ) ) ) 0 ) ( = ( + ( * ( - 1 ) lam12n0 ) ( * 1 lam12n1 ) ( * Nl2main_x1 lam12n2 ) ( * Nl2main_x2 lam12n3 ) ( * Nl2main_x3 lam12n4 ) ( - ( - RFN1_main_x ) ) ) 0 ) ) ) ) ( and ( >= lam10n0 0 ) ( >= lam10n1 0 ) ( >= lam10n2 0 ) ( >= lam10n3 0 ) ( >= lam10n4 0 ) ( > ( + ( * ( - 5 ) lam10n0 ) ( * 1 lam10n1 ) ( * Nl2CT1 lam10n2 ) ( * Nl2CT2 lam10n3 ) ( * Nl2CT3 lam10n4 ) ( - 1 ) ) 0 ) ( = ( + ( * ( - 1 ) lam10n0 ) ( * 1 lam10n1 ) ( * Nl2main_x1 lam10n2 ) ( * Nl2main_x2 lam10n3 ) ( * Nl2main_x3 lam10n4 ) ) 0 ) ) ))
(check-sat)
(exit)
